instances/knapsack/discrete/knapsack_120_20.lp
\ Model knapsack_120_20
\ LP format - for model browsing. Use MPS format to capture full model detail.
\ Signature: 0x89f048c0c90eaa9
Minimize
  - 37 x[0] - 77 x[1] - 75 x[2] - 83 x[3] - 16 x[4] - 8 x[5] - 32 x[6]
   - 98 x[7] - 33 x[8] - 25 x[9] - 98 x[10] - 70 x[11] - 22 x[12]
   - 33 x[13] - 82 x[14] - 59 x[15] - 45 x[16] - 69 x[17] - 81 x[18]
   - 80 x[19] - 52 x[20] - 74 x[21] - 91 x[22] - 83 x[23] - 28 x[24]
   - 41 x[25] - 51 x[26] - 6 x[27] - 37 x[28] - 23 x[29] - 8 x[30]
   - 95 x[31] - 51 x[32] - 22 x[33] - 74 x[34] - 48 x[35] - 64 x[36]
   - 18 x[37] - 73 x[38] - 38 x[39] - 15 x[40] - 84 x[41] - 12 x[42]
   - 66 x[43] - 77 x[44] - 74 x[45] - 39 x[46] - 27 x[47] - 55 x[48]
   - 60 x[49] - 66 x[50] - 73 x[51] - 66 x[52] - 4 x[53] - 11 x[54]
   - 33 x[55] - 61 x[56] - 79 x[57] - 79 x[58] - 90 x[59] - 55 x[60]
   - 93 x[61] - 88 x[62] - 84 x[63] - 9 x[64] - 20 x[65] - 40 x[66]
   - 32 x[67] - 71 x[68] - 52 x[69] - 80 x[70] - 6 x[71] - 36 x[72]
   - 68 x[73] - 49 x[74] - 21 x[75] - 25 x[76] - 56 x[77] - 43 x[78]
   - 58 x[79] - 38 x[80] - 97 x[81] - 24 x[82] - 37 x[83] - 24 x[84]
   - 27 x[85] - 81 x[86] - 58 x[87] - 35 x[88] - 37 x[89] - 41 x[90]
   - 44 x[91] - 100 x[92] - 27 x[93] - 75 x[94] - 41 x[95] - 32 x[96]
   - 19 x[97] - 71 x[98] - 7 x[99] - 99 x[100] - 12 x[101] - 81 x[102]
   - 4 x[103] - 46 x[104] - 78 x[105] - x[106] - 47 x[107] - 57 x[108]
   - 11 x[109] - 100 x[110] - 9 x[111] - 76 x[112] - 70 x[113] - 45 x[114]
   - 88 x[115] - 14 x[116] - 100 x[117] - 65 x[118] - 62 x[119]
Subject To
 primal_upper: 4 x[0] + 37 x[1] + 67 x[2] + 80 x[3] + 25 x[4] + 82 x[5]
   + 18 x[6] + 100 x[7] + 62 x[8] + 75 x[9] + 24 x[10] + 28 x[11]
   + 13 x[12] + 9 x[13] + 37 x[14] + 85 x[15] + 38 x[16] + 49 x[17]
   + 6 x[18] + 67 x[19] + 10 x[20] + 20 x[21] + 49 x[22] + 47 x[23]
   + 45 x[24] + 77 x[25] + 23 x[26] + 12 x[27] + 54 x[28] + 16 x[29]
   + 50 x[30] + 24 x[31] + 32 x[32] + 54 x[33] + 65 x[34] + 66 x[35]
   + 97 x[36] + 25 x[37] + 89 x[38] + 15 x[39] + 72 x[40] + 38 x[41]
   + 71 x[42] + 42 x[43] + 68 x[44] + 19 x[45] + 82 x[46] + 74 x[47]
   + 40 x[48] + 21 x[49] + 75 x[50] + 25 x[51] + 22 x[52] + 13 x[53]
   + 69 x[54] + 28 x[55] + 86 x[56] + 35 x[57] + 25 x[58] + 51 x[59]
   + 5 x[60] + 75 x[61] + 80 x[62] + 63 x[63] + 24 x[64] + 21 x[65]
   + 73 x[66] + 23 x[67] + 93 x[68] + 42 x[69] + 70 x[70] + 70 x[71]
   + 15 x[72] + 48 x[73] + 76 x[74] + 53 x[75] + 79 x[76] + 8 x[77] + x[78]
   + 47 x[79] + 94 x[80] + 6 x[81] + 27 x[82] + 26 x[83] + 94 x[84]
   + 98 x[85] + 8 x[86] + 93 x[87] + 39 x[88] + 32 x[89] + 77 x[90]
   + 37 x[91] + 65 x[92] + 56 x[93] + 45 x[94] + 78 x[95] + 38 x[96]
   + 65 x[97] + 93 x[98] + 29 x[99] + 74 x[100] + 9 x[101] + 39 x[102]
   + 21 x[103] + 6 x[104] + 19 x[105] + 4 x[106] + 7 x[107] + 19 x[108]
   + 14 x[109] + 55 x[110] + 100 x[111] + 66 x[112] + 98 x[113] + 18 x[114]
   + 43 x[115] + 32 x[116] + 50 x[117] + 66 x[118] + 13 x[119] + 0.4 r[0]
   + 3.7 r[1] + 6.7 r[2] + 8 r[3] + 2.5 r[4] + 8.2 r[5] + 1.8 r[6]
   + 10 r[7] + 6.2 r[8] + 7.5 r[9] + 2.4 r[10] + 2.8 r[11] + 1.3 r[12]
   + 0.9 r[13] + 3.7 r[14] + 8.5 r[15] + 3.8 r[16] + 4.9 r[17] + 0.6 r[18]
   + 6.7 r[19] + r[20] + 2 r[21] + 4.9 r[22] + 4.7 r[23] + 4.5 r[24]
   + 7.7 r[25] + 2.3 r[26] + 1.2 r[27] + 5.4 r[28] + 1.6 r[29] + 5 r[30]
   + 2.4 r[31] + 3.2 r[32] + 5.4 r[33] + 6.5 r[34] + 6.6 r[35] + 9.7 r[36]
   + 2.5 r[37] + 8.9 r[38] + 1.5 r[39] + 7.2 r[40] + 3.8 r[41] + 7.1 r[42]
   + 4.2 r[43] + 6.8 r[44] + 1.9 r[45] + 8.2 r[46] + 7.4 r[47] + 4 r[48]
   + 2.1 r[49] + 7.5 r[50] + 2.5 r[51] + 2.2 r[52] + 1.3 r[53] + 6.9 r[54]
   + 2.8 r[55] + 8.6 r[56] + 3.5 r[57] + 2.5 r[58] + 5.1 r[59] + 0.5 r[60]
   + 7.5 r[61] + 8 r[62] + 6.3 r[63] + 2.4 r[64] + 2.1 r[65] + 7.3 r[66]
   + 2.3 r[67] + 9.3 r[68] + 4.2 r[69] + 7 r[70] + 7 r[71] + 1.5 r[72]
   + 4.8 r[73] + 7.6 r[74] + 5.3 r[75] + 7.9 r[76] + 0.8 r[77] + 0.1 r[78]
   + 4.7 r[79] + 9.4 r[80] + 0.6 r[81] + 2.7 r[82] + 2.6 r[83] + 9.4 r[84]
   + 9.8 r[85] + 0.8 r[86] + 9.3 r[87] + 3.9 r[88] + 3.2 r[89] + 7.7 r[90]
   + 3.7 r[91] + 6.5 r[92] + 5.6 r[93] + 4.5 r[94] + 7.8 r[95] + 3.8 r[96]
   + 6.5 r[97] + 9.3 r[98] + 2.9 r[99] + 7.4 r[100] + 0.9 r[101]
   + 3.9 r[102] + 2.1 r[103] + 0.6 r[104] + 1.9 r[105] + 0.4 r[106]
   + 0.7 r[107] + 1.9 r[108] + 1.4 r[109] + 5.5 r[110] + 10 r[111]
   + 6.6 r[112] + 9.8 r[113] + 1.8 r[114] + 4.3 r[115] + 3.2 r[116]
   + 5 r[117] + 6.6 r[118] + 1.3 r[119] <= 528
 primal_lower: 2.031219915423725 x[0] + 0.8368063896081902 x[1]
   + 1.527797905207067 x[2] + 1.864083693345266 x[3]
   + 1.03485430913446 x[4] + 0.0193584992839452 x[5]
   + 1.53828452530165 x[6] + 2.194755462266442 x[7]
   + 2.772630145705586 x[8] + 2.809846881055281 x[9]
   + 3.689566665380388 x[10] + 3.995976713808741 x[11]
   + 2.342844369145949 x[12] + 2.844238531448765 x[13]
   + 4.411661771070336 x[14] + 0.3661508198447425 x[15]
   + 1.654403239271502 x[16] + 3.882022956799541 x[17]
   + 2.916774743700883 x[18] + 4.369354855901238 x[19]
   + 1.861729800648086 x[20] + 3.487228725141942 x[21]
   + 0.9534129162756192 x[22] + 0.6471370579225652 x[23]
   + 0.9013650004816098 x[24] + 2.62951004772632 x[25]
   + 1.15824728115624 x[26] + 3.881936304633477 x[27]
   + 3.824719892145256 x[28] + 1.094799520930011 x[29]
   + 3.09408325607584 x[30] + 2.608559261800739 x[31]
   + 2.865265535901229 x[32] + 2.746664480619127 x[33]
   + 1.712862778298636 x[34] + 3.486931381283523 x[35]
   + 4.417371850164809 x[36] + 3.08888058063088 x[37]
   + 2.638779179334867 x[38] + 2.194922235341951 x[39]
   + 0.0457630602087489 x[40] + 2.078901772076394 x[41]
   + 2.04307690388524 x[42] + 1.828716996321592 x[43]
   + 4.410622050858913 x[44] + 0.9576569120390471 x[45]
   + 2.359536252381186 x[46] + 1.268272283822259 x[47]
   + 3.156906098111262 x[48] + 2.289774809710259 x[49]
   + 2.34429532152424 x[50] + 0.3911913859608773 x[51]
   + 0.0336529345450347 x[52] + 2.973254377297964 x[53]
   + 1.299584189066612 x[54] + 2.852903571769004 x[55]
   + 2.873284349386504 x[56] + 1.818731419621133 x[57]
   + 0.190051378311808 x[58] + 4.263128187462812 x[59]
   + 0.1850888504991292 x[60] + 0.4964372286574227 x[61]
   + 2.823945239795898 x[62] + 4.277831054997133 x[63]
   + 1.790748225324732 x[64] + 3.383535266966101 x[65]
   + 0.74097750125018 x[66] + 0.5422647769478474 x[67]
   + 3.385171381471419 x[68] + 2.683083344092617 x[69]
   + 1.902139133894697 x[70] + 3.621374807234813 x[71]
   + 1.189113420434333 x[72] + 0.2735004154525298 x[73]
   + 3.189669087941104 x[74] + 0.8582355730230701 x[75]
   + 0.9153735642481762 x[76] + 0.1722812696334674 x[77]
   + 3.594905058341714 x[78] + 2.274854990566841 x[79]
   + 0.1157197912063633 x[80] + 3.947775200774593 x[81]
   + 4.097964491503298 x[82] + 1.534857476232901 x[83]
   + 3.265083821154009 x[84] + 1.471433303591727 x[85]
   + 3.325816760436003 x[86] + 2.41239070609738 x[87]
   + 1.411621712635542 x[88] + 3.677726745870024 x[89]
   + 3.054792433989812 x[90] + 0.3751158788121047 x[91]
   + 1.735964055730666 x[92] + 3.036537426898912 x[93]
   + 1.512764438266644 x[94] + 1.226630118128736 x[95]
   + 2.493251538701175 x[96] + 0.7761975615753284 x[97]
   + 0.687265140777824 x[98] + 2.754220453474402 x[99]
   + 2.79451483856086 x[100] + 3.985896273167704 x[101]
   + 1.667321679751317 x[102] + 1.649843659388069 x[103]
   + 2.261803270534555 x[104] + 4.202180992208955 x[105]
   + 0.4761148796270309 x[106] + 0.6132556701718573 x[107]
   + 2.483055508136804 x[108] + 3.183529579455963 x[109]
   + 4.213128275127511 x[110] + 3.257789594572678 x[111]
   + 3.969462156155927 x[112] + 2.292665941758111 x[113]
   + 3.881404589180224 x[114] + 3.914524913993128 x[115]
   + 1.491864492797081 x[116] + 3.528199902136993 x[117]
   + 4.406238209067554 x[118] + 4.375069324548455 x[119] + 94 u[0]
   + 79 u[1] + 77 u[2] + 50 u[3] + 79 u[4] + 20 u[5] + 24 u[6] + 6 u[7]
   + 24 u[8] + 53 u[9] + 18 u[10] + 58 u[11] + 91 u[12] + 15 u[13]
   + 83 u[14] + 19 u[15] + 68 u[16] + 75 u[17] + 8 u[18] + 85 u[19]
   + 24 u[20] + 10 u[21] + 71 u[22] + 9 u[23] + 91 u[24] + 27 u[25]
   + 21 u[26] + 82 u[27] + 24 u[28] + 10 u[29] + 44 u[30] + 78 u[31]
   + 90 u[32] + 8 u[33] + 51 u[34] + 48 u[35] + 99 u[36] + 47 u[37]
   + 39 u[38] + 21 u[39] + 74 u[40] + 4 u[41] + 53 u[42] + 72 u[43]
   + 74 u[44] + 89 u[45] + 96 u[46] + 84 u[47] + 30 u[48] + 15 u[49]
   + 33 u[50] + 51 u[51] + 76 u[52] + 31 u[53] + 91 u[54] + 90 u[55]
   + 48 u[56] + 9 u[57] + 55 u[58] + 73 u[59] + 91 u[60] + 33 u[61]
   + 90 u[62] + 5 u[63] + 50 u[64] + 91 u[65] + 39 u[66] + 5 u[67]
   + 79 u[68] + 84 u[69] + 100 u[70] + 52 u[71] + 49 u[72] + 2 u[73]
   + 70 u[74] + 51 u[75] + 69 u[76] + 82 u[77] + 3 u[78] + 49 u[79]
   + 16 u[80] + 20 u[81] + 29 u[82] + 44 u[83] + 8 u[84] + 52 u[85]
   + 58 u[86] + 23 u[87] + 77 u[88] + 10 u[89] + 47 u[90] + 71 u[91]
   + 43 u[92] + 70 u[93] + 19 u[94] + 56 u[95] + 12 u[96] + 19 u[97]
   + 11 u[98] + 43 u[99] + 76 u[100] + 3 u[101] + 33 u[102] + 3 u[103]
   + 72 u[104] + 13 u[105] + 74 u[106] + 21 u[107] + 65 u[108] + 64 u[109]
   + 53 u[110] + 74 u[111] + 72 u[112] + 16 u[113] + 12 u[114] + u[115]
   + 90 u[116] + 12 u[117] + 40 u[118] + 11 u[119] <= 40899
 mccormick1[0]: - u[0] + r[0] <= 0
 mccormick1[1]: - u[1] + r[1] <= 0
 mccormick1[2]: - u[2] + r[2] <= 0
 mccormick1[3]: - u[3] + r[3] <= 0
 mccormick1[4]: - u[4] + r[4] <= 0
 mccormick1[5]: - u[5] + r[5] <= 0
 mccormick1[6]: - u[6] + r[6] <= 0
 mccormick1[7]: - u[7] + r[7] <= 0
 mccormick1[8]: - u[8] + r[8] <= 0
 mccormick1[9]: - u[9] + r[9] <= 0
 mccormick1[10]: - u[10] + r[10] <= 0
 mccormick1[11]: - u[11] + r[11] <= 0
 mccormick1[12]: - u[12] + r[12] <= 0
 mccormick1[13]: - u[13] + r[13] <= 0
 mccormick1[14]: - u[14] + r[14] <= 0
 mccormick1[15]: - u[15] + r[15] <= 0
 mccormick1[16]: - u[16] + r[16] <= 0
 mccormick1[17]: - u[17] + r[17] <= 0
 mccormick1[18]: - u[18] + r[18] <= 0
 mccormick1[19]: - u[19] + r[19] <= 0
 mccormick1[20]: - u[20] + r[20] <= 0
 mccormick1[21]: - u[21] + r[21] <= 0
 mccormick1[22]: - u[22] + r[22] <= 0
 mccormick1[23]: - u[23] + r[23] <= 0
 mccormick1[24]: - u[24] + r[24] <= 0
 mccormick1[25]: - u[25] + r[25] <= 0
 mccormick1[26]: - u[26] + r[26] <= 0
 mccormick1[27]: - u[27] + r[27] <= 0
 mccormick1[28]: - u[28] + r[28] <= 0
 mccormick1[29]: - u[29] + r[29] <= 0
 mccormick1[30]: - u[30] + r[30] <= 0
 mccormick1[31]: - u[31] + r[31] <= 0
 mccormick1[32]: - u[32] + r[32] <= 0
 mccormick1[33]: - u[33] + r[33] <= 0
 mccormick1[34]: - u[34] + r[34] <= 0
 mccormick1[35]: - u[35] + r[35] <= 0
 mccormick1[36]: - u[36] + r[36] <= 0
 mccormick1[37]: - u[37] + r[37] <= 0
 mccormick1[38]: - u[38] + r[38] <= 0
 mccormick1[39]: - u[39] + r[39] <= 0
 mccormick1[40]: - u[40] + r[40] <= 0
 mccormick1[41]: - u[41] + r[41] <= 0
 mccormick1[42]: - u[42] + r[42] <= 0
 mccormick1[43]: - u[43] + r[43] <= 0
 mccormick1[44]: - u[44] + r[44] <= 0
 mccormick1[45]: - u[45] + r[45] <= 0
 mccormick1[46]: - u[46] + r[46] <= 0
 mccormick1[47]: - u[47] + r[47] <= 0
 mccormick1[48]: - u[48] + r[48] <= 0
 mccormick1[49]: - u[49] + r[49] <= 0
 mccormick1[50]: - u[50] + r[50] <= 0
 mccormick1[51]: - u[51] + r[51] <= 0
 mccormick1[52]: - u[52] + r[52] <= 0
 mccormick1[53]: - u[53] + r[53] <= 0
 mccormick1[54]: - u[54] + r[54] <= 0
 mccormick1[55]: - u[55] + r[55] <= 0
 mccormick1[56]: - u[56] + r[56] <= 0
 mccormick1[57]: - u[57] + r[57] <= 0
 mccormick1[58]: - u[58] + r[58] <= 0
 mccormick1[59]: - u[59] + r[59] <= 0
 mccormick1[60]: - u[60] + r[60] <= 0
 mccormick1[61]: - u[61] + r[61] <= 0
 mccormick1[62]: - u[62] + r[62] <= 0
 mccormick1[63]: - u[63] + r[63] <= 0
 mccormick1[64]: - u[64] + r[64] <= 0
 mccormick1[65]: - u[65] + r[65] <= 0
 mccormick1[66]: - u[66] + r[66] <= 0
 mccormick1[67]: - u[67] + r[67] <= 0
 mccormick1[68]: - u[68] + r[68] <= 0
 mccormick1[69]: - u[69] + r[69] <= 0
 mccormick1[70]: - u[70] + r[70] <= 0
 mccormick1[71]: - u[71] + r[71] <= 0
 mccormick1[72]: - u[72] + r[72] <= 0
 mccormick1[73]: - u[73] + r[73] <= 0
 mccormick1[74]: - u[74] + r[74] <= 0
 mccormick1[75]: - u[75] + r[75] <= 0
 mccormick1[76]: - u[76] + r[76] <= 0
 mccormick1[77]: - u[77] + r[77] <= 0
 mccormick1[78]: - u[78] + r[78] <= 0
 mccormick1[79]: - u[79] + r[79] <= 0
 mccormick1[80]: - u[80] + r[80] <= 0
 mccormick1[81]: - u[81] + r[81] <= 0
 mccormick1[82]: - u[82] + r[82] <= 0
 mccormick1[83]: - u[83] + r[83] <= 0
 mccormick1[84]: - u[84] + r[84] <= 0
 mccormick1[85]: - u[85] + r[85] <= 0
 mccormick1[86]: - u[86] + r[86] <= 0
 mccormick1[87]: - u[87] + r[87] <= 0
 mccormick1[88]: - u[88] + r[88] <= 0
 mccormick1[89]: - u[89] + r[89] <= 0
 mccormick1[90]: - u[90] + r[90] <= 0
 mccormick1[91]: - u[91] + r[91] <= 0
 mccormick1[92]: - u[92] + r[92] <= 0
 mccormick1[93]: - u[93] + r[93] <= 0
 mccormick1[94]: - u[94] + r[94] <= 0
 mccormick1[95]: - u[95] + r[95] <= 0
 mccormick1[96]: - u[96] + r[96] <= 0
 mccormick1[97]: - u[97] + r[97] <= 0
 mccormick1[98]: - u[98] + r[98] <= 0
 mccormick1[99]: - u[99] + r[99] <= 0
 mccormick1[100]: - u[100] + r[100] <= 0
 mccormick1[101]: - u[101] + r[101] <= 0
 mccormick1[102]: - u[102] + r[102] <= 0
 mccormick1[103]: - u[103] + r[103] <= 0
 mccormick1[104]: - u[104] + r[104] <= 0
 mccormick1[105]: - u[105] + r[105] <= 0
 mccormick1[106]: - u[106] + r[106] <= 0
 mccormick1[107]: - u[107] + r[107] <= 0
 mccormick1[108]: - u[108] + r[108] <= 0
 mccormick1[109]: - u[109] + r[109] <= 0
 mccormick1[110]: - u[110] + r[110] <= 0
 mccormick1[111]: - u[111] + r[111] <= 0
 mccormick1[112]: - u[112] + r[112] <= 0
 mccormick1[113]: - u[113] + r[113] <= 0
 mccormick1[114]: - u[114] + r[114] <= 0
 mccormick1[115]: - u[115] + r[115] <= 0
 mccormick1[116]: - u[116] + r[116] <= 0
 mccormick1[117]: - u[117] + r[117] <= 0
 mccormick1[118]: - u[118] + r[118] <= 0
 mccormick1[119]: - u[119] + r[119] <= 0
 mccormick2[0]: - x[0] + r[0] <= 0
 mccormick2[1]: - x[1] + r[1] <= 0
 mccormick2[2]: - x[2] + r[2] <= 0
 mccormick2[3]: - x[3] + r[3] <= 0
 mccormick2[4]: - x[4] + r[4] <= 0
 mccormick2[5]: - x[5] + r[5] <= 0
 mccormick2[6]: - x[6] + r[6] <= 0
 mccormick2[7]: - x[7] + r[7] <= 0
 mccormick2[8]: - x[8] + r[8] <= 0
 mccormick2[9]: - x[9] + r[9] <= 0
 mccormick2[10]: - x[10] + r[10] <= 0
 mccormick2[11]: - x[11] + r[11] <= 0
 mccormick2[12]: - x[12] + r[12] <= 0
 mccormick2[13]: - x[13] + r[13] <= 0
 mccormick2[14]: - x[14] + r[14] <= 0
 mccormick2[15]: - x[15] + r[15] <= 0
 mccormick2[16]: - x[16] + r[16] <= 0
 mccormick2[17]: - x[17] + r[17] <= 0
 mccormick2[18]: - x[18] + r[18] <= 0
 mccormick2[19]: - x[19] + r[19] <= 0
 mccormick2[20]: - x[20] + r[20] <= 0
 mccormick2[21]: - x[21] + r[21] <= 0
 mccormick2[22]: - x[22] + r[22] <= 0
 mccormick2[23]: - x[23] + r[23] <= 0
 mccormick2[24]: - x[24] + r[24] <= 0
 mccormick2[25]: - x[25] + r[25] <= 0
 mccormick2[26]: - x[26] + r[26] <= 0
 mccormick2[27]: - x[27] + r[27] <= 0
 mccormick2[28]: - x[28] + r[28] <= 0
 mccormick2[29]: - x[29] + r[29] <= 0
 mccormick2[30]: - x[30] + r[30] <= 0
 mccormick2[31]: - x[31] + r[31] <= 0
 mccormick2[32]: - x[32] + r[32] <= 0
 mccormick2[33]: - x[33] + r[33] <= 0
 mccormick2[34]: - x[34] + r[34] <= 0
 mccormick2[35]: - x[35] + r[35] <= 0
 mccormick2[36]: - x[36] + r[36] <= 0
 mccormick2[37]: - x[37] + r[37] <= 0
 mccormick2[38]: - x[38] + r[38] <= 0
 mccormick2[39]: - x[39] + r[39] <= 0
 mccormick2[40]: - x[40] + r[40] <= 0
 mccormick2[41]: - x[41] + r[41] <= 0
 mccormick2[42]: - x[42] + r[42] <= 0
 mccormick2[43]: - x[43] + r[43] <= 0
 mccormick2[44]: - x[44] + r[44] <= 0
 mccormick2[45]: - x[45] + r[45] <= 0
 mccormick2[46]: - x[46] + r[46] <= 0
 mccormick2[47]: - x[47] + r[47] <= 0
 mccormick2[48]: - x[48] + r[48] <= 0
 mccormick2[49]: - x[49] + r[49] <= 0
 mccormick2[50]: - x[50] + r[50] <= 0
 mccormick2[51]: - x[51] + r[51] <= 0
 mccormick2[52]: - x[52] + r[52] <= 0
 mccormick2[53]: - x[53] + r[53] <= 0
 mccormick2[54]: - x[54] + r[54] <= 0
 mccormick2[55]: - x[55] + r[55] <= 0
 mccormick2[56]: - x[56] + r[56] <= 0
 mccormick2[57]: - x[57] + r[57] <= 0
 mccormick2[58]: - x[58] + r[58] <= 0
 mccormick2[59]: - x[59] + r[59] <= 0
 mccormick2[60]: - x[60] + r[60] <= 0
 mccormick2[61]: - x[61] + r[61] <= 0
 mccormick2[62]: - x[62] + r[62] <= 0
 mccormick2[63]: - x[63] + r[63] <= 0
 mccormick2[64]: - x[64] + r[64] <= 0
 mccormick2[65]: - x[65] + r[65] <= 0
 mccormick2[66]: - x[66] + r[66] <= 0
 mccormick2[67]: - x[67] + r[67] <= 0
 mccormick2[68]: - x[68] + r[68] <= 0
 mccormick2[69]: - x[69] + r[69] <= 0
 mccormick2[70]: - x[70] + r[70] <= 0
 mccormick2[71]: - x[71] + r[71] <= 0
 mccormick2[72]: - x[72] + r[72] <= 0
 mccormick2[73]: - x[73] + r[73] <= 0
 mccormick2[74]: - x[74] + r[74] <= 0
 mccormick2[75]: - x[75] + r[75] <= 0
 mccormick2[76]: - x[76] + r[76] <= 0
 mccormick2[77]: - x[77] + r[77] <= 0
 mccormick2[78]: - x[78] + r[78] <= 0
 mccormick2[79]: - x[79] + r[79] <= 0
 mccormick2[80]: - x[80] + r[80] <= 0
 mccormick2[81]: - x[81] + r[81] <= 0
 mccormick2[82]: - x[82] + r[82] <= 0
 mccormick2[83]: - x[83] + r[83] <= 0
 mccormick2[84]: - x[84] + r[84] <= 0
 mccormick2[85]: - x[85] + r[85] <= 0
 mccormick2[86]: - x[86] + r[86] <= 0
 mccormick2[87]: - x[87] + r[87] <= 0
 mccormick2[88]: - x[88] + r[88] <= 0
 mccormick2[89]: - x[89] + r[89] <= 0
 mccormick2[90]: - x[90] + r[90] <= 0
 mccormick2[91]: - x[91] + r[91] <= 0
 mccormick2[92]: - x[92] + r[92] <= 0
 mccormick2[93]: - x[93] + r[93] <= 0
 mccormick2[94]: - x[94] + r[94] <= 0
 mccormick2[95]: - x[95] + r[95] <= 0
 mccormick2[96]: - x[96] + r[96] <= 0
 mccormick2[97]: - x[97] + r[97] <= 0
 mccormick2[98]: - x[98] + r[98] <= 0
 mccormick2[99]: - x[99] + r[99] <= 0
 mccormick2[100]: - x[100] + r[100] <= 0
 mccormick2[101]: - x[101] + r[101] <= 0
 mccormick2[102]: - x[102] + r[102] <= 0
 mccormick2[103]: - x[103] + r[103] <= 0
 mccormick2[104]: - x[104] + r[104] <= 0
 mccormick2[105]: - x[105] + r[105] <= 0
 mccormick2[106]: - x[106] + r[106] <= 0
 mccormick2[107]: - x[107] + r[107] <= 0
 mccormick2[108]: - x[108] + r[108] <= 0
 mccormick2[109]: - x[109] + r[109] <= 0
 mccormick2[110]: - x[110] + r[110] <= 0
 mccormick2[111]: - x[111] + r[111] <= 0
 mccormick2[112]: - x[112] + r[112] <= 0
 mccormick2[113]: - x[113] + r[113] <= 0
 mccormick2[114]: - x[114] + r[114] <= 0
 mccormick2[115]: - x[115] + r[115] <= 0
 mccormick2[116]: - x[116] + r[116] <= 0
 mccormick2[117]: - x[117] + r[117] <= 0
 mccormick2[118]: - x[118] + r[118] <= 0
 mccormick2[119]: - x[119] + r[119] <= 0
 mccormick3[0]: x[0] + u[0] - r[0] <= 1
 mccormick3[1]: x[1] + u[1] - r[1] <= 1
 mccormick3[2]: x[2] + u[2] - r[2] <= 1
 mccormick3[3]: x[3] + u[3] - r[3] <= 1
 mccormick3[4]: x[4] + u[4] - r[4] <= 1
 mccormick3[5]: x[5] + u[5] - r[5] <= 1
 mccormick3[6]: x[6] + u[6] - r[6] <= 1
 mccormick3[7]: x[7] + u[7] - r[7] <= 1
 mccormick3[8]: x[8] + u[8] - r[8] <= 1
 mccormick3[9]: x[9] + u[9] - r[9] <= 1
 mccormick3[10]: x[10] + u[10] - r[10] <= 1
 mccormick3[11]: x[11] + u[11] - r[11] <= 1
 mccormick3[12]: x[12] + u[12] - r[12] <= 1
 mccormick3[13]: x[13] + u[13] - r[13] <= 1
 mccormick3[14]: x[14] + u[14] - r[14] <= 1
 mccormick3[15]: x[15] + u[15] - r[15] <= 1
 mccormick3[16]: x[16] + u[16] - r[16] <= 1
 mccormick3[17]: x[17] + u[17] - r[17] <= 1
 mccormick3[18]: x[18] + u[18] - r[18] <= 1
 mccormick3[19]: x[19] + u[19] - r[19] <= 1
 mccormick3[20]: x[20] + u[20] - r[20] <= 1
 mccormick3[21]: x[21] + u[21] - r[21] <= 1
 mccormick3[22]: x[22] + u[22] - r[22] <= 1
 mccormick3[23]: x[23] + u[23] - r[23] <= 1
 mccormick3[24]: x[24] + u[24] - r[24] <= 1
 mccormick3[25]: x[25] + u[25] - r[25] <= 1
 mccormick3[26]: x[26] + u[26] - r[26] <= 1
 mccormick3[27]: x[27] + u[27] - r[27] <= 1
 mccormick3[28]: x[28] + u[28] - r[28] <= 1
 mccormick3[29]: x[29] + u[29] - r[29] <= 1
 mccormick3[30]: x[30] + u[30] - r[30] <= 1
 mccormick3[31]: x[31] + u[31] - r[31] <= 1
 mccormick3[32]: x[32] + u[32] - r[32] <= 1
 mccormick3[33]: x[33] + u[33] - r[33] <= 1
 mccormick3[34]: x[34] + u[34] - r[34] <= 1
 mccormick3[35]: x[35] + u[35] - r[35] <= 1
 mccormick3[36]: x[36] + u[36] - r[36] <= 1
 mccormick3[37]: x[37] + u[37] - r[37] <= 1
 mccormick3[38]: x[38] + u[38] - r[38] <= 1
 mccormick3[39]: x[39] + u[39] - r[39] <= 1
 mccormick3[40]: x[40] + u[40] - r[40] <= 1
 mccormick3[41]: x[41] + u[41] - r[41] <= 1
 mccormick3[42]: x[42] + u[42] - r[42] <= 1
 mccormick3[43]: x[43] + u[43] - r[43] <= 1
 mccormick3[44]: x[44] + u[44] - r[44] <= 1
 mccormick3[45]: x[45] + u[45] - r[45] <= 1
 mccormick3[46]: x[46] + u[46] - r[46] <= 1
 mccormick3[47]: x[47] + u[47] - r[47] <= 1
 mccormick3[48]: x[48] + u[48] - r[48] <= 1
 mccormick3[49]: x[49] + u[49] - r[49] <= 1
 mccormick3[50]: x[50] + u[50] - r[50] <= 1
 mccormick3[51]: x[51] + u[51] - r[51] <= 1
 mccormick3[52]: x[52] + u[52] - r[52] <= 1
 mccormick3[53]: x[53] + u[53] - r[53] <= 1
 mccormick3[54]: x[54] + u[54] - r[54] <= 1
 mccormick3[55]: x[55] + u[55] - r[55] <= 1
 mccormick3[56]: x[56] + u[56] - r[56] <= 1
 mccormick3[57]: x[57] + u[57] - r[57] <= 1
 mccormick3[58]: x[58] + u[58] - r[58] <= 1
 mccormick3[59]: x[59] + u[59] - r[59] <= 1
 mccormick3[60]: x[60] + u[60] - r[60] <= 1
 mccormick3[61]: x[61] + u[61] - r[61] <= 1
 mccormick3[62]: x[62] + u[62] - r[62] <= 1
 mccormick3[63]: x[63] + u[63] - r[63] <= 1
 mccormick3[64]: x[64] + u[64] - r[64] <= 1
 mccormick3[65]: x[65] + u[65] - r[65] <= 1
 mccormick3[66]: x[66] + u[66] - r[66] <= 1
 mccormick3[67]: x[67] + u[67] - r[67] <= 1
 mccormick3[68]: x[68] + u[68] - r[68] <= 1
 mccormick3[69]: x[69] + u[69] - r[69] <= 1
 mccormick3[70]: x[70] + u[70] - r[70] <= 1
 mccormick3[71]: x[71] + u[71] - r[71] <= 1
 mccormick3[72]: x[72] + u[72] - r[72] <= 1
 mccormick3[73]: x[73] + u[73] - r[73] <= 1
 mccormick3[74]: x[74] + u[74] - r[74] <= 1
 mccormick3[75]: x[75] + u[75] - r[75] <= 1
 mccormick3[76]: x[76] + u[76] - r[76] <= 1
 mccormick3[77]: x[77] + u[77] - r[77] <= 1
 mccormick3[78]: x[78] + u[78] - r[78] <= 1
 mccormick3[79]: x[79] + u[79] - r[79] <= 1
 mccormick3[80]: x[80] + u[80] - r[80] <= 1
 mccormick3[81]: x[81] + u[81] - r[81] <= 1
 mccormick3[82]: x[82] + u[82] - r[82] <= 1
 mccormick3[83]: x[83] + u[83] - r[83] <= 1
 mccormick3[84]: x[84] + u[84] - r[84] <= 1
 mccormick3[85]: x[85] + u[85] - r[85] <= 1
 mccormick3[86]: x[86] + u[86] - r[86] <= 1
 mccormick3[87]: x[87] + u[87] - r[87] <= 1
 mccormick3[88]: x[88] + u[88] - r[88] <= 1
 mccormick3[89]: x[89] + u[89] - r[89] <= 1
 mccormick3[90]: x[90] + u[90] - r[90] <= 1
 mccormick3[91]: x[91] + u[91] - r[91] <= 1
 mccormick3[92]: x[92] + u[92] - r[92] <= 1
 mccormick3[93]: x[93] + u[93] - r[93] <= 1
 mccormick3[94]: x[94] + u[94] - r[94] <= 1
 mccormick3[95]: x[95] + u[95] - r[95] <= 1
 mccormick3[96]: x[96] + u[96] - r[96] <= 1
 mccormick3[97]: x[97] + u[97] - r[97] <= 1
 mccormick3[98]: x[98] + u[98] - r[98] <= 1
 mccormick3[99]: x[99] + u[99] - r[99] <= 1
 mccormick3[100]: x[100] + u[100] - r[100] <= 1
 mccormick3[101]: x[101] + u[101] - r[101] <= 1
 mccormick3[102]: x[102] + u[102] - r[102] <= 1
 mccormick3[103]: x[103] + u[103] - r[103] <= 1
 mccormick3[104]: x[104] + u[104] - r[104] <= 1
 mccormick3[105]: x[105] + u[105] - r[105] <= 1
 mccormick3[106]: x[106] + u[106] - r[106] <= 1
 mccormick3[107]: x[107] + u[107] - r[107] <= 1
 mccormick3[108]: x[108] + u[108] - r[108] <= 1
 mccormick3[109]: x[109] + u[109] - r[109] <= 1
 mccormick3[110]: x[110] + u[110] - r[110] <= 1
 mccormick3[111]: x[111] + u[111] - r[111] <= 1
 mccormick3[112]: x[112] + u[112] - r[112] <= 1
 mccormick3[113]: x[113] + u[113] - r[113] <= 1
 mccormick3[114]: x[114] + u[114] - r[114] <= 1
 mccormick3[115]: x[115] + u[115] - r[115] <= 1
 mccormick3[116]: x[116] + u[116] - r[116] <= 1
 mccormick3[117]: x[117] + u[117] - r[117] <= 1
 mccormick3[118]: x[118] + u[118] - r[118] <= 1
 mccormick3[119]: x[119] + u[119] - r[119] <= 1
Bounds
Binaries
 x[0] x[1] x[2] x[3] x[4] x[5] x[6] x[7] x[8] x[9] x[10] x[11] x[12] x[13]
 x[14] x[15] x[16] x[17] x[18] x[19] x[20] x[21] x[22] x[23] x[24] x[25]
 x[26] x[27] x[28] x[29] x[30] x[31] x[32] x[33] x[34] x[35] x[36] x[37]
 x[38] x[39] x[40] x[41] x[42] x[43] x[44] x[45] x[46] x[47] x[48] x[49]
 x[50] x[51] x[52] x[53] x[54] x[55] x[56] x[57] x[58] x[59] x[60] x[61]
 x[62] x[63] x[64] x[65] x[66] x[67] x[68] x[69] x[70] x[71] x[72] x[73]
 x[74] x[75] x[76] x[77] x[78] x[79] x[80] x[81] x[82] x[83] x[84] x[85]
 x[86] x[87] x[88] x[89] x[90] x[91] x[92] x[93] x[94] x[95] x[96] x[97]
 x[98] x[99] x[100] x[101] x[102] x[103] x[104] x[105] x[106] x[107] x[108]
 x[109] x[110] x[111] x[112] x[113] x[114] x[115] x[116] x[117] x[118]
 x[119] u[0] u[1] u[2] u[3] u[4] u[5] u[6] u[7] u[8] u[9] u[10] u[11] u[12]
 u[13] u[14] u[15] u[16] u[17] u[18] u[19] u[20] u[21] u[22] u[23] u[24]
 u[25] u[26] u[27] u[28] u[29] u[30] u[31] u[32] u[33] u[34] u[35] u[36]
 u[37] u[38] u[39] u[40] u[41] u[42] u[43] u[44] u[45] u[46] u[47] u[48]
 u[49] u[50] u[51] u[52] u[53] u[54] u[55] u[56] u[57] u[58] u[59] u[60]
 u[61] u[62] u[63] u[64] u[65] u[66] u[67] u[68] u[69] u[70] u[71] u[72]
 u[73] u[74] u[75] u[76] u[77] u[78] u[79] u[80] u[81] u[82] u[83] u[84]
 u[85] u[86] u[87] u[88] u[89] u[90] u[91] u[92] u[93] u[94] u[95] u[96]
 u[97] u[98] u[99] u[100] u[101] u[102] u[103] u[104] u[105] u[106] u[107]
 u[108] u[109] u[110] u[111] u[112] u[113] u[114] u[115] u[116] u[117]
 u[118] u[119] r[0] r[1] r[2] r[3] r[4] r[5] r[6] r[7] r[8] r[9] r[10]
 r[11] r[12] r[13] r[14] r[15] r[16] r[17] r[18] r[19] r[20] r[21] r[22]
 r[23] r[24] r[25] r[26] r[27] r[28] r[29] r[30] r[31] r[32] r[33] r[34]
 r[35] r[36] r[37] r[38] r[39] r[40] r[41] r[42] r[43] r[44] r[45] r[46]
 r[47] r[48] r[49] r[50] r[51] r[52] r[53] r[54] r[55] r[56] r[57] r[58]
 r[59] r[60] r[61] r[62] r[63] r[64] r[65] r[66] r[67] r[68] r[69] r[70]
 r[71] r[72] r[73] r[74] r[75] r[76] r[77] r[78] r[79] r[80] r[81] r[82]
 r[83] r[84] r[85] r[86] r[87] r[88] r[89] r[90] r[91] r[92] r[93] r[94]
 r[95] r[96] r[97] r[98] r[99] r[100] r[101] r[102] r[103] r[104] r[105]
 r[106] r[107] r[108] r[109] r[110] r[111] r[112] r[113] r[114] r[115]
 r[116] r[117] r[118] r[119]
End
