instances/knapsack/discrete/knapsack_120_20.kp
43759
120
528

4 0.4 37
37 3.7 77
67 6.7 75
80 8.0 83
25 2.5 16
82 8.2 8
18 1.8 32
100 10.0 98
62 6.2 33
75 7.5 25
24 2.4 98
28 2.8 70
13 1.3 22
9 0.9 33
37 3.7 82
85 8.5 59
38 3.8 45
49 4.9 69
6 0.6 81
67 6.7 80
10 1.0 52
20 2.0 74
49 4.9 91
47 4.7 83
45 4.5 28
77 7.7 41
23 2.3 51
12 1.2 6
54 5.4 37
16 1.6 23
50 5.0 8
24 2.4 95
32 3.2 51
54 5.4 22
65 6.5 74
66 6.6 48
97 9.7 64
25 2.5 18
89 8.9 73
15 1.5 38
72 7.2 15
38 3.8 84
71 7.1 12
42 4.2 66
68 6.8 77
19 1.9 74
82 8.2 39
74 7.4 27
40 4.0 55
21 2.1 60
75 7.5 66
25 2.5 73
22 2.2 66
13 1.3 4
69 6.9 11
28 2.8 33
86 8.6 61
35 3.5 79
25 2.5 79
51 5.1 90
5 0.5 55
75 7.5 93
80 8.0 88
63 6.3 84
24 2.4 9
21 2.1 20
73 7.3 40
23 2.3 32
93 9.3 71
42 4.2 52
70 7.0 80
70 7.0 6
15 1.5 36
48 4.8 68
76 7.6 49
53 5.3 21
79 7.9 25
8 0.8 56
1 0.1 43
47 4.7 58
94 9.4 38
6 0.6 97
27 2.7 24
26 2.6 37
94 9.4 24
98 9.8 27
8 0.8 81
93 9.3 58
39 3.9 35
32 3.2 37
77 7.7 41
37 3.7 44
65 6.5 100
56 5.6 27
45 4.5 75
78 7.8 41
38 3.8 32
65 6.5 19
93 9.3 71
29 2.9 7
74 7.4 99
9 0.9 12
39 3.9 81
21 2.1 4
6 0.6 46
19 1.9 78
4 0.4 1
7 0.7 47
19 1.9 57
14 1.4 11
55 5.5 100
100 10.0 9
66 6.6 76
98 9.8 70
18 1.8 45
43 4.3 88
32 3.2 14
50 5.0 100
66 6.6 65
13 1.3 62

40899
542

[2.031219915423725 0.8368063896081902 1.5277979052070667 1.8640836933452665 1.0348543091344602 0.01935849928394522 1.53828452530165 2.1947554622664422 2.7726301457055857 2.8098468810552815 3.6895666653803882 3.9959767138087408 2.342844369145949 2.844238531448765 4.411661771070336 0.3661508198447425 1.654403239271502 3.882022956799541 2.916774743700883 4.369354855901238 1.8617298006480865 3.487228725141942 0.9534129162756192 0.6471370579225652 0.9013650004816098 2.6295100477263205 1.15824728115624 3.8819363046334767 3.8247198921452563 1.0947995209300114 3.0940832560758404 2.608559261800739 2.865265535901229 2.7466644806191267 1.7128627782986356 3.486931381283523 4.417371850164809 3.08888058063088 2.638779179334867 2.194922235341951 0.04576306020874887 2.0789017720763945 2.04307690388524 1.8287169963215921 4.410622050858913 0.9576569120390471 2.359536252381186 1.2682722838222593 3.1569060981112624 2.289774809710259 2.34429532152424 0.3911913859608773 0.033652934545034735 2.973254377297964 1.299584189066612 2.852903571769004 2.8732843493865037 1.8187314196211326 0.190051378311808 4.263128187462812 0.18508885049912915 0.49643722865742274 2.823945239795898 4.277831054997133 1.7907482253247315 3.383535266966101 0.74097750125018 0.5422647769478474 3.3851713814714186 2.6830833440926165 1.9021391338946974 3.6213748072348126 1.1891134204343332 0.2735004154525298 3.1896690879411036 0.8582355730230701 0.9153735642481762 0.17228126963346743 3.594905058341714 2.274854990566841 0.11571979120636328 3.9477752007745925 4.097964491503298 1.5348574762329015 3.2650838211540094 1.4714333035917266 3.3258167604360027 2.4123907060973804 1.411621712635542 3.677726745870024 3.0547924339898116 0.3751158788121047 1.7359640557306657 3.036537426898912 1.5127644382666439 1.2266301181287356 2.4932515387011747 0.7761975615753284 0.687265140777824 2.754220453474402 2.7945148385608602 3.9858962731677043 1.6673216797513173 1.6498436593880688 2.2618032705345548 4.202180992208955 0.4761148796270309 0.6132556701718573 2.4830555081368044 3.183529579455963 4.213128275127511 3.257789594572678 3.969462156155927 2.292665941758111 3.881404589180224 3.914524913993128 1.4918644927970812 3.528199902136993 4.406238209067554 4.375069324548455]

[94 79 77 50 79 20 24 6 24 53 18 58 91 15 83 19 68 75 8 85 24 10 71 9 91 27 21 82 24 10 44 78 90 8 51 48 99 47 39 21 74 4 53 72 74 89 96 84 30 15 33 51 76 31 91 90 48 9 55 73 91 33 90 5 50 91 39 5 79 84 100 52 49 2 70 51 69 82 3 49 16 20 29 44 8 52 58 23 77 10 47 71 43 70 19 56 12 19 11 43 76 3 33 3 72 13 74 21 65 64 53 74 72 16 12 1 90 12 40 11]
